db/data/230711342166295662853724869139924384.z3.out
-------------------
2500.203241315
